\ LP format - for model browsing. Use MPS format to capture full model detail.
Minimize
  7 X[1,2] + 12 X[1,3] + 21 X[1,4] + 31 X[1,5] + 44 X[1,6] + 7 X[2,3]
   + 12 X[2,4] + 21 X[2,5] + 31 X[2,6] + 7 X[3,4] + 12 X[3,5] + 21 X[3,6]
   + 7 X[4,5] + 12 X[4,6] + 7 X[5,6]
Subject To
 R0: X[1,2] + X[1,3] + X[1,4] + X[1,5] + X[1,6] = 1
 R1: X[1,6] + X[2,6] + X[3,6] + X[4,6] + X[5,6] = 1
 R2: X[1,2] - X[2,3] - X[2,4] - X[2,5] - X[2,6] = 0
 R3: X[1,3] + X[2,3] - X[3,4] - X[3,5] - X[3,6] = 0
 R4: X[1,4] + X[2,4] + X[3,4] - X[4,5] - X[4,6] = 0
 R5: X[1,5] + X[2,5] + X[3,5] + X[4,5] - X[5,6] = 0
Bounds
Binaries
 X[1,2] X[1,3] X[1,4] X[1,5] X[1,6] X[2,3] X[2,4] X[2,5] X[2,6] X[3,4]
 X[3,5] X[3,6] X[4,5] X[4,6] X[5,6]
End
